Route #1: 5 10 8 9 4 6 11 7 72 2 34
Route #2: 15 14 17 18 13 16 3 20 12 19
Route #3: 37 36 32 33 35 61 62 60 59 63 64 65 66 67 68 70 41 39 38 69 40 58 57 55
Route #4: 56 42 50 71 51 52 48 49 53 46 45 47 54 44 43 28 29 23 22 31 27 26 25 24 30 21
cost 254